
Gurobi 9.0.2 (mac64) logging started Mon Apr 20 15:52:05 2020

Academic license - for non-commercial use only

Gurobi 9.0.2 (mac64) logging started Mon Apr 20 15:52:11 2020

Academic license - for non-commercial use only

Gurobi 9.0.2 (mac64) logging started Mon Apr 20 15:52:26 2020

Academic license - for non-commercial use only

Gurobi 9.0.2 (mac64) logging started Mon Apr 20 15:52:38 2020

Academic license - for non-commercial use only

Gurobi 9.0.2 (mac64) logging started Mon Apr 20 15:53:06 2020

Academic license - for non-commercial use only

Gurobi 9.0.2 (mac64) logging started Mon Apr 20 15:53:21 2020

Academic license - for non-commercial use only

Gurobi 9.0.2 (mac64) logging started Mon Apr 20 19:11:38 2020

Academic license - for non-commercial use only

Gurobi 9.0.2 (mac64) logging started Mon Apr 20 19:12:44 2020

Academic license - for non-commercial use only

Gurobi 9.0.2 (mac64) logging started Mon Apr 20 19:13:45 2020

Academic license - for non-commercial use only

Gurobi 9.0.2 (mac64) logging started Mon Apr 20 19:14:49 2020

Academic license - for non-commercial use only

Gurobi 9.0.2 (mac64) logging started Mon Apr 20 19:15:49 2020

Academic license - for non-commercial use only

Gurobi 9.0.2 (mac64) logging started Mon Apr 20 19:18:31 2020

Academic license - for non-commercial use only

Gurobi 9.0.2 (mac64) logging started Mon Apr 20 19:18:45 2020

Academic license - for non-commercial use only

Gurobi 9.0.2 (mac64) logging started Mon Apr 20 19:18:57 2020

Academic license - for non-commercial use only
